Maximize
 0
Subject To
 epc_0!1: +73.69473089668557 y_1!1_2!1 -14.68833258923317 y_1!2_2!1 +58.63168471535275 y_1!3_2!1 +68.91827214850625 y_1!4_2!1 +35.84528537951209 y_1!5_2!1 -12.649918105335729 y_1!6_2!1 +93.71221893737862 y_1!1_2!2 +66.35584140036383 y_1!2_2!2 -8.19764612303932 y_1!3_2!2 -95.14443899609203 y_1!4_2!2 +18.554290747906265 y_1!5_2!2 -28.126787109901883 y_1!6_2!2 +57.91105601089913 y_1!1_2!3 -88.17771219405783 y_1!2_2!3 +3.5939614751601567 y_1!3_2!3 +58.638589000371184 y_1!4_2!3 -40.112134845821345 y_1!5_2!3 -62.425043814120265 y_1!6_2!3 -25.74355699760696 y_1!1_2!4 -81.95706298840197 y_1!2_2!4 -40.19856502276935 y_1!3_2!4 +71.70672112741244 y_1!4_2!4 -15.474985809912951 y_1!5_2!4 +87.10496413062302 y_1!6_2!4 +29.549930344334058 y_1!1_2!5 -4.603499776253557 y_1!2_2!5 +49.89714420953297 y_1!3_2!5 +71.39610505353963 y_1!4_2!5 -90.88375075721757 y_1!5_2!5 -10.113015769206953 y_1!6_2!5 -96.99093171748439 y_1!1_2!6 -60.733192768277334 y_1!2_2!6 -62.11772716626991 y_1!3_2!6 -77.09550829751642 y_1!4_2!6 -14.789917071484766 y_1!5_2!6 -86.84470455292923 y_1!6_2!6 + lambda_0!1 - mu_0 = 0
 epc_0!2: -9.140784964083352 y_1!1_2!1 +98.08007229848937 y_1!2_2!1 +54.599341646716994 y_1!3_2!1 -68.99306471029693 y_1!4_2!1 -11.142172105757226 y_1!5_2!1 -48.80220823123014 y_1!6_2!1 +35.44690546285179 y_1!1_2!2 -85.01396609027003 y_1!2_2!2 +27.10462673295922 y_1!3_2!2 +17.191715053152294 y_1!4_2!2 +47.694208224580734 y_1!5_2!2 -45.94006110067716 y_1!6_2!2 -99.61461327102947 y_1!1_2!3 -20.317638125337226 y_1!2_2!3 +75.57201728021948 y_1!3_2!3 -85.05881361453524 y_1!4_2!3 +8.912845109696761 y_1!5_2!3 -80.22724020297369 y_1!6_2!3 +74.76521831311442 y_1!1_2!4 -52.44434012188466 y_1!2_2!4 -28.585648046750293 y_1!3_2!4 -35.31394760097888 y_1!4_2!4 -78.11647274529763 y_1!5_2!4 +38.91089426624842 y_1!6_2!4 +37.743451491409814 y_1!1_2!5 +76.74728860308375 y_1!2_2!5 +73.2217661113778 y_1!3_2!5 -76.67576715723061 y_1!4_2!5 +33.046625905953846 y_1!5_2!5 -72.7592591810218 y_1!6_2!5 +89.84089781534365 y_1!1_2!6 -81.4579025251956 y_1!2_2!6 +15.516496938817596 y_1!3_2!6 +49.673954277021096 y_1!4_2!6 +36.0011649662917 y_1!5_2!6 -92.71838510048308 y_1!6_2!6 + lambda_0!2 - mu_0 = 0
 epc_0!3: -51.41564869727808 y_1!1_2!1 -66.16221540601549 y_1!2_2!1 -51.414402855803964 y_1!3_2!1 +31.993150308782504 y_1!4_2!1 +2.952553898334372 y_1!5_2!1 -92.79982301016791 y_1!6_2!1 -37.127377422041505 y_1!1_2!2 +45.26007932751824 y_1!2_2!2 -87.3625905906141 y_1!3_2!2 +14.800096111896522 y_1!4_2!2 -74.25006562918877 y_1!5_2!2 -38.56602861241569 y_1!6_2!2 +70.2355906091748 y_1!1_2!3 +83.8683997378246 y_1!2_2!3 -16.622336379111786 y_1!3_2!3 -58.81966124201892 y_1!4_2!3 +45.66879150518582 y_1!5_2!3 +78.18531798295376 y_1!6_2!3 -0.41013921289088273 y_1!1_2!4 +99.76225592003462 y_1!2_2!4 -19.101744839875806 y_1!3_2!4 -24.804468575144114 y_1!4_2!4 -41.572345979176426 y_1!5_2!4 +10.040452387481565 y_1!6_2!4 -87.02813712832065 y_1!1_2!5 -14.286459553715929 y_1!2_2!5 -73.35445906039939 y_1!3_2!5 +35.954312507401056 y_1!4_2!5 -98.81505976001554 y_1!5_2!5 -95.49934488971907 y_1!6_2!5 +76.97207256267026 y_1!1_2!6 -90.2348806211378 y_1!2_2!6 +84.1361360723561 y_1!3_2!6 +29.994792575117827 y_1!4_2!6 -77.09380516695197 y_1!5_2!6 +16.34275262122702 y_1!6_2!6 + lambda_0!3 - mu_0 = 0
 epc_0!4: +30.341954439361473 y_1!1_2!1 +24.534909512736476 y_1!2_2!1 -62.848667698075886 y_1!3_2!1 -15.12551336404266 y_1!4_2!1 +5.505822145050729 y_1!5_2!1 +99.58902244452287 y_1!6_2!1 -49.133553204061585 y_1!1_2!2 -95.97504533017923 y_1!2_2!2 -91.84912698182967 y_1!3_2!2 +38.898551558398424 y_1!4_2!2 -78.53434247925885 y_1!5_2!2 +73.06963893926942 y_1!6_2!2 -46.13419374937655 y_1!1_2!3 +98.39645873438997 y_1!2_2!3 +38.09508194718407 y_1!3_2!3 +14.597769810439004 y_1!4_2!3 +22.268186705341122 y_1!5_2!3 -41.818993635095936 y_1!6_2!3 +53.71387843728775 y_1!1_2!4 +21.878109167437373 y_1!2_2!4 +89.70574302018966 y_1!3_2!4 +59.663520076874846 y_1!4_2!4 -74.43466638406488 y_1!5_2!4 -22.68837166663684 y_1!6_2!4 +88.63002863606067 y_1!1_2!5 +69.58373182789484 y_1!2_2!5 +60.835917672416116 y_1!3_2!5 +82.51742026541078 y_1!4_2!5 +63.17371033598312 y_1!5_2!5 -47.07588656424628 y_1!6_2!5 +62.0335949029336 y_1!1_2!6 +7.083228143810302 y_1!2_2!6 -59.537304017024596 y_1!3_2!6 -13.24562707270907 y_1!4_2!6 -83.38338503463731 y_1!5_2!6 +13.011707978739523 y_1!6_2!6 + lambda_0!4 - mu_0 = 0
 epc_0!5: -33.17731367732621 y_1!1_2!1 +15.625298830606653 y_1!2_2!1 -9.289252783997412 y_1!3_2!1 +53.329701400340355 y_1!4_2!1 -99.59307140079929 y_1!5_2!1 -26.17205691574678 y_1!6_2!1 +55.08749453701316 y_1!1_2!2 -50.285332585253315 y_1!2_2!2 +51.46143377791742 y_1!3_2!2 -35.537490873795406 y_1!4_2!2 +43.26452953080559 y_1!5_2!2 -95.2726194132629 y_1!6_2!2 -30.6099125926997 y_1!1_2!3 -71.83642834788888 y_1!2_2!3 -93.51726566655172 y_1!3_2!3 +43.766555903334535 y_1!4_2!3 -69.23294878846092 y_1!5_2!3 +88.83153335258845 y_1!6_2!3 +49.0780400516926 y_1!1_2!4 +39.93624013436698 y_1!2_2!4 -59.49420938777132 y_1!3_2!4 +54.92676080845945 y_1!4_2!4 +37.762029434206966 y_1!5_2!4 +8.705399960847245 y_1!6_2!4 +71.3215234102947 y_1!1_2!5 -42.30999453021287 y_1!2_2!5 -0.41340546685404433 y_1!3_2!5 -53.865543695002295 y_1!4_2!5 +54.76841633420756 y_1!5_2!5 +52.070306225858644 y_1!6_2!5 +46.87393918173669 y_1!1_2!6 -38.55008445199108 y_1!2_2!6 +87.13271981491616 y_1!3_2!6 +56.14170194855646 y_1!4_2!6 -82.60683380532635 y_1!5_2!6 +4.748442781774443 y_1!6_2!6 + lambda_0!5 - mu_0 = 0
 epc_0!6: -27.18869726607045 y_1!1_2!1 -41.385811844298544 y_1!2_2!1 -39.76572415037858 y_1!3_2!1 -63.50146565953565 y_1!4_2!1 -53.57041362929007 y_1!5_2!1 +74.18543422350885 y_1!6_2!1 -91.35457229904517 y_1!1_2!2 +71.44585532770603 y_1!2_2!2 +21.076881093553297 y_1!3_2!2 -99.0820319040912 y_1!4_2!2 +10.070051468787142 y_1!5_2!2 +24.9218465552095 y_1!6_2!2 -92.92728721071515 y_1!1_2!3 -76.84159517350102 y_1!2_2!3 -48.95352479471165 y_1!3_2!3 +34.66787623875388 y_1!4_2!3 +9.438435694415944 y_1!5_2!3 +87.93087958339305 y_1!6_2!3 +60.44297653890209 y_1!1_2!4 -80.24704487659824 y_1!2_2!4 +9.167275762771084 y_1!3_2!4 +66.58120360008789 y_1!4_2!4 -3.55317299646498 y_1!5_2!4 +51.159586917749635 y_1!6_2!4 +1.440161043341817 y_1!1_2!5 -17.062849917925192 y_1!2_2!5 -62.23529257111644 y_1!3_2!5 +42.40130563334529 y_1!4_2!5 -2.1814144124506356 y_1!5_2!5 +27.516104108654062 y_1!6_2!5 -88.93413503675285 y_1!1_2!6 +4.703240039506198 y_1!2_2!6 +49.44580481410415 y_1!3_2!6 +27.31133515632804 y_1!4_2!6 -63.30086729427356 y_1!5_2!6 +61.276900157449404 y_1!6_2!6 + lambda_0!6 - mu_0 = 0
 dc_0: x_0!1 + x_0!2 + x_0!3 + x_0!4 + x_0!5 + x_0!6 = 1
 bc_0!1: lambda_0!1 +299.3768691910641 x_0!1 <= 299.3768691910641
 bc_0!2: lambda_0!2 +299.3768691910641 x_0!2 <= 299.3768691910641
 bc_0!3: lambda_0!3 +299.3768691910641 x_0!3 <= 299.3768691910641
 bc_0!4: lambda_0!4 +299.3768691910641 x_0!4 <= 299.3768691910641
 bc_0!5: lambda_0!5 +299.3768691910641 x_0!5 <= 299.3768691910641
 bc_0!6: lambda_0!6 +299.3768691910641 x_0!6 <= 299.3768691910641
 sum_0!1: y_1!1_2!1 - x_1!1 - x_2!1 >= -1
 idk_0!1!1: y_1!1_2!1 - x_1!1 <= 0
 idk_0!1!2: y_1!1_2!1 - x_2!1 <= 0
 sum_0!2: y_1!2_2!1 - x_1!2 - x_2!1 >= -1
 idk_0!2!1: y_1!2_2!1 - x_1!2 <= 0
 idk_0!2!2: y_1!2_2!1 - x_2!1 <= 0
 sum_0!3: y_1!3_2!1 - x_1!3 - x_2!1 >= -1
 idk_0!3!1: y_1!3_2!1 - x_1!3 <= 0
 idk_0!3!2: y_1!3_2!1 - x_2!1 <= 0
 sum_0!4: y_1!4_2!1 - x_1!4 - x_2!1 >= -1
 idk_0!4!1: y_1!4_2!1 - x_1!4 <= 0
 idk_0!4!2: y_1!4_2!1 - x_2!1 <= 0
 sum_0!5: y_1!5_2!1 - x_1!5 - x_2!1 >= -1
 idk_0!5!1: y_1!5_2!1 - x_1!5 <= 0
 idk_0!5!2: y_1!5_2!1 - x_2!1 <= 0
 sum_0!6: y_1!6_2!1 - x_1!6 - x_2!1 >= -1
 idk_0!6!1: y_1!6_2!1 - x_1!6 <= 0
 idk_0!6!2: y_1!6_2!1 - x_2!1 <= 0
 sum_0!7: y_1!1_2!2 - x_1!1 - x_2!2 >= -1
 idk_0!7!1: y_1!1_2!2 - x_1!1 <= 0
 idk_0!7!2: y_1!1_2!2 - x_2!2 <= 0
 sum_0!8: y_1!2_2!2 - x_1!2 - x_2!2 >= -1
 idk_0!8!1: y_1!2_2!2 - x_1!2 <= 0
 idk_0!8!2: y_1!2_2!2 - x_2!2 <= 0
 sum_0!9: y_1!3_2!2 - x_1!3 - x_2!2 >= -1
 idk_0!9!1: y_1!3_2!2 - x_1!3 <= 0
 idk_0!9!2: y_1!3_2!2 - x_2!2 <= 0
 sum_0!10: y_1!4_2!2 - x_1!4 - x_2!2 >= -1
 idk_0!10!1: y_1!4_2!2 - x_1!4 <= 0
 idk_0!10!2: y_1!4_2!2 - x_2!2 <= 0
 sum_0!11: y_1!5_2!2 - x_1!5 - x_2!2 >= -1
 idk_0!11!1: y_1!5_2!2 - x_1!5 <= 0
 idk_0!11!2: y_1!5_2!2 - x_2!2 <= 0
 sum_0!12: y_1!6_2!2 - x_1!6 - x_2!2 >= -1
 idk_0!12!1: y_1!6_2!2 - x_1!6 <= 0
 idk_0!12!2: y_1!6_2!2 - x_2!2 <= 0
 sum_0!13: y_1!1_2!3 - x_1!1 - x_2!3 >= -1
 idk_0!13!1: y_1!1_2!3 - x_1!1 <= 0
 idk_0!13!2: y_1!1_2!3 - x_2!3 <= 0
 sum_0!14: y_1!2_2!3 - x_1!2 - x_2!3 >= -1
 idk_0!14!1: y_1!2_2!3 - x_1!2 <= 0
 idk_0!14!2: y_1!2_2!3 - x_2!3 <= 0
 sum_0!15: y_1!3_2!3 - x_1!3 - x_2!3 >= -1
 idk_0!15!1: y_1!3_2!3 - x_1!3 <= 0
 idk_0!15!2: y_1!3_2!3 - x_2!3 <= 0
 sum_0!16: y_1!4_2!3 - x_1!4 - x_2!3 >= -1
 idk_0!16!1: y_1!4_2!3 - x_1!4 <= 0
 idk_0!16!2: y_1!4_2!3 - x_2!3 <= 0
 sum_0!17: y_1!5_2!3 - x_1!5 - x_2!3 >= -1
 idk_0!17!1: y_1!5_2!3 - x_1!5 <= 0
 idk_0!17!2: y_1!5_2!3 - x_2!3 <= 0
 sum_0!18: y_1!6_2!3 - x_1!6 - x_2!3 >= -1
 idk_0!18!1: y_1!6_2!3 - x_1!6 <= 0
 idk_0!18!2: y_1!6_2!3 - x_2!3 <= 0
 sum_0!19: y_1!1_2!4 - x_1!1 - x_2!4 >= -1
 idk_0!19!1: y_1!1_2!4 - x_1!1 <= 0
 idk_0!19!2: y_1!1_2!4 - x_2!4 <= 0
 sum_0!20: y_1!2_2!4 - x_1!2 - x_2!4 >= -1
 idk_0!20!1: y_1!2_2!4 - x_1!2 <= 0
 idk_0!20!2: y_1!2_2!4 - x_2!4 <= 0
 sum_0!21: y_1!3_2!4 - x_1!3 - x_2!4 >= -1
 idk_0!21!1: y_1!3_2!4 - x_1!3 <= 0
 idk_0!21!2: y_1!3_2!4 - x_2!4 <= 0
 sum_0!22: y_1!4_2!4 - x_1!4 - x_2!4 >= -1
 idk_0!22!1: y_1!4_2!4 - x_1!4 <= 0
 idk_0!22!2: y_1!4_2!4 - x_2!4 <= 0
 sum_0!23: y_1!5_2!4 - x_1!5 - x_2!4 >= -1
 idk_0!23!1: y_1!5_2!4 - x_1!5 <= 0
 idk_0!23!2: y_1!5_2!4 - x_2!4 <= 0
 sum_0!24: y_1!6_2!4 - x_1!6 - x_2!4 >= -1
 idk_0!24!1: y_1!6_2!4 - x_1!6 <= 0
 idk_0!24!2: y_1!6_2!4 - x_2!4 <= 0
 sum_0!25: y_1!1_2!5 - x_1!1 - x_2!5 >= -1
 idk_0!25!1: y_1!1_2!5 - x_1!1 <= 0
 idk_0!25!2: y_1!1_2!5 - x_2!5 <= 0
 sum_0!26: y_1!2_2!5 - x_1!2 - x_2!5 >= -1
 idk_0!26!1: y_1!2_2!5 - x_1!2 <= 0
 idk_0!26!2: y_1!2_2!5 - x_2!5 <= 0
 sum_0!27: y_1!3_2!5 - x_1!3 - x_2!5 >= -1
 idk_0!27!1: y_1!3_2!5 - x_1!3 <= 0
 idk_0!27!2: y_1!3_2!5 - x_2!5 <= 0
 sum_0!28: y_1!4_2!5 - x_1!4 - x_2!5 >= -1
 idk_0!28!1: y_1!4_2!5 - x_1!4 <= 0
 idk_0!28!2: y_1!4_2!5 - x_2!5 <= 0
 sum_0!29: y_1!5_2!5 - x_1!5 - x_2!5 >= -1
 idk_0!29!1: y_1!5_2!5 - x_1!5 <= 0
 idk_0!29!2: y_1!5_2!5 - x_2!5 <= 0
 sum_0!30: y_1!6_2!5 - x_1!6 - x_2!5 >= -1
 idk_0!30!1: y_1!6_2!5 - x_1!6 <= 0
 idk_0!30!2: y_1!6_2!5 - x_2!5 <= 0
 sum_0!31: y_1!1_2!6 - x_1!1 - x_2!6 >= -1
 idk_0!31!1: y_1!1_2!6 - x_1!1 <= 0
 idk_0!31!2: y_1!1_2!6 - x_2!6 <= 0
 sum_0!32: y_1!2_2!6 - x_1!2 - x_2!6 >= -1
 idk_0!32!1: y_1!2_2!6 - x_1!2 <= 0
 idk_0!32!2: y_1!2_2!6 - x_2!6 <= 0
 sum_0!33: y_1!3_2!6 - x_1!3 - x_2!6 >= -1
 idk_0!33!1: y_1!3_2!6 - x_1!3 <= 0
 idk_0!33!2: y_1!3_2!6 - x_2!6 <= 0
 sum_0!34: y_1!4_2!6 - x_1!4 - x_2!6 >= -1
 idk_0!34!1: y_1!4_2!6 - x_1!4 <= 0
 idk_0!34!2: y_1!4_2!6 - x_2!6 <= 0
 sum_0!35: y_1!5_2!6 - x_1!5 - x_2!6 >= -1
 idk_0!35!1: y_1!5_2!6 - x_1!5 <= 0
 idk_0!35!2: y_1!5_2!6 - x_2!6 <= 0
 sum_0!36: y_1!6_2!6 - x_1!6 - x_2!6 >= -1
 idk_0!36!1: y_1!6_2!6 - x_1!6 <= 0
 idk_0!36!2: y_1!6_2!6 - x_2!6 <= 0
 epc_1!1: -35.4972720592537 y_0!1_2!1 -84.43468755614205 y_0!2_2!1 +7.294003172602231 y_0!3_2!1 -83.3432499523154 y_0!4_2!1 +87.60390348791555 y_0!5_2!1 -29.599991724756222 y_0!6_2!1 -70.39439989813643 y_0!1_2!2 -80.76960794807914 y_0!2_2!2 -55.49025996347301 y_0!3_2!2 +42.58832606821562 y_0!4_2!2 +79.610721307544 y_0!5_2!2 +10.488455440349327 y_0!6_2!2 +92.00252221257898 y_0!1_2!3 +72.71637449807042 y_0!2_2!3 -29.67753597922416 y_0!3_2!3 -92.23641891074175 y_0!4_2!3 +67.98420998635811 y_0!5_2!3 -60.399993138312794 y_0!6_2!3 +86.20711868363256 y_0!1_2!4 +76.68192542380208 y_0!2_2!4 +52.18985339496621 y_0!3_2!4 -89.42602268101541 y_0!4_2!4 +94.30537759419104 y_0!5_2!4 +33.00804539266761 y_0!6_2!4 +52.99278437584803 y_0!1_2!5 +7.039713753043088 y_0!2_2!5 +85.5663710540693 y_0!3_2!5 -47.9593575958005 y_0!4_2!5 -82.72197780532981 y_0!5_2!5 -83.05567815553299 y_0!6_2!5 +41.72007917189322 y_0!1_2!6 -65.31252391049455 y_0!2_2!6 -21.374793977419102 y_0!3_2!6 -42.11454427789294 y_0!4_2!6 +27.359516211388964 y_0!5_2!6 +57.28465876381742 y_0!6_2!6 + lambda_1!1 - mu_1 = 0
 epc_1!2: +82.37390507281381 y_0!1_2!1 +60.60421482548102 y_0!2_2!1 +84.45651570324671 y_0!3_2!1 -29.75303826678399 y_0!4_2!1 -50.777002294727325 y_0!5_2!1 +34.16581759768721 y_0!6_2!1 -23.205352942891523 y_0!1_2!2 -64.24598662620689 y_0!2_2!2 -89.15939339073947 y_0!3_2!2 +39.828589394788736 y_0!4_2!2 -65.70900462254087 y_0!5_2!2 +61.635800030901066 y_0!6_2!2 +83.05896058750739 y_0!1_2!3 -32.662475110579095 y_0!2_2!3 +58.9999342102995 y_0!3_2!3 -85.65771240859532 y_0!4_2!3 -84.12600514355255 y_0!5_2!3 +63.68090266410215 y_0!6_2!3 +9.748042321684181 y_0!1_2!4 -2.323368983234687 y_0!2_2!4 -90.03208161409368 y_0!3_2!4 -22.582053997754485 y_0!4_2!4 +59.42519935518783 y_0!5_2!4 +27.727714388728984 y_0!6_2!4 -23.709821735604834 y_0!1_2!5 +77.30557177530153 y_0!2_2!5 +99.0793222944285 y_0!3_2!5 -55.407198491090995 y_0!4_2!5 -38.78915937019989 y_0!5_2!5 +78.39130530764734 y_0!6_2!5 -70.54684904239528 y_0!1_2!6 -36.52345056066806 y_0!2_2!6 -96.23751063786081 y_0!3_2!6 +82.4447490464459 y_0!4_2!6 +53.62268536646866 y_0!5_2!6 -59.43158513500262 y_0!6_2!6 + lambda_1!2 - mu_1 = 0
 epc_1!3: +37.94764490372745 y_0!1_2!1 -4.112746412682682 y_0!2_2!1 -26.284093730345106 y_0!3_2!1 -1.1101771040423785 y_0!4_2!1 +14.086905808506316 y_0!5_2!1 -31.473073887721796 y_0!6_2!1 -55.3855379785479 y_0!1_2!2 +54.268804110387634 y_0!2_2!2 +41.91263640292587 y_0!3_2!2 -77.09627188232136 y_0!4_2!2 -14.654297783365934 y_0!5_2!2 +73.17663864335697 y_0!6_2!2 +38.60911759974826 y_0!1_2!3 +81.88879202396572 y_0!2_2!3 -52.5438836422645 y_0!3_2!3 +76.44862011998273 y_0!4_2!3 -19.491240170840896 y_0!5_2!3 +45.160248576074764 y_0!6_2!3 +27.30248582755901 y_0!1_2!4 +71.80346707814681 y_0!2_2!4 -84.67337105915156 y_0!3_2!4 +77.46182900687421 y_0!4_2!4 +82.50027352206698 y_0!5_2!4 +88.04258070173131 y_0!6_2!4 -36.63064793098383 y_0!1_2!5 +30.110217903659986 y_0!2_2!5 +81.31782965374546 y_0!3_2!5 +60.50781626933863 y_0!4_2!5 -37.6086811165997 y_0!5_2!5 -98.86622718922156 y_0!6_2!5 -23.82934720917092 y_0!1_2!6 -79.97076864606909 y_0!2_2!6 -87.83582367832024 y_0!3_2!6 +9.994869462178556 y_0!4_2!6 -96.87914735394767 y_0!5_2!6 +94.77772779500546 y_0!6_2!6 + lambda_1!3 - mu_1 = 0
 epc_1!4: +46.054094722631845 y_0!1_2!1 -48.044104763167404 y_0!2_2!1 -11.189446558656883 y_0!3_2!1 +18.992159622261994 y_0!4_2!1 +73.63373058474755 y_0!5_2!1 +10.462807549175722 y_0!6_2!1 -21.654100352456766 y_0!1_2!2 +56.317537004821304 y_0!2_2!2 -98.87725937471797 y_0!3_2!2 -76.39473461745314 y_0!4_2!2 +7.8839843536623135 y_0!5_2!2 -69.42340831767697 y_0!6_2!2 +11.382670850596739 y_0!1_2!3 +43.10164180349011 y_0!2_2!3 -89.65906614116217 y_0!3_2!3 -8.12012800845801 y_0!4_2!3 +96.96840483060862 y_0!5_2!3 -52.514121726410366 y_0!6_2!3 +77.94322780503424 y_0!1_2!4 -93.07394540544745 y_0!2_2!4 -61.73457790193893 y_0!3_2!4 +64.05120172051264 y_0!4_2!4 -12.617855359759005 y_0!5_2!4 -57.28765326056546 y_0!6_2!4 +39.45595145092827 y_0!1_2!5 -68.17365002464211 y_0!2_2!5 +76.80095658198292 y_0!3_2!5 -63.04496933531376 y_0!4_2!5 -38.623663560748646 y_0!5_2!5 +80.79763678444138 y_0!6_2!5 -15.368614498531798 y_0!1_2!6 +36.264685326453275 y_0!2_2!6 -0.16445793825535304 y_0!3_2!6 -32.71062059887453 y_0!4_2!6 -15.768671474874779 y_0!5_2!6 +62.655934447092136 y_0!6_2!6 + lambda_1!4 - mu_1 = 0
 epc_1!5: -7.572055142084963 y_0!1_2!1 +10.380716482110202 y_0!2_2!1 +61.04754737142915 y_0!3_2!1 -43.51858945907689 y_0!4_2!1 +33.78930456573673 y_0!5_2!1 -32.882312857786815 y_0!6_2!1 +68.92321466330492 y_0!1_2!2 +87.64907633759759 y_0!2_2!2 -23.047227078435114 y_0!3_2!2 -50.466574851559564 y_0!4_2!2 -25.139303846502685 y_0!5_2!2 +16.52468757211112 y_0!6_2!2 +99.0074446418594 y_0!1_2!3 +22.8038467968763 y_0!2_2!3 -43.379404026412026 y_0!3_2!3 +8.568392765016313 y_0!4_2!3 -65.03884967483498 y_0!5_2!3 +66.56846221621839 y_0!6_2!3 +85.25822327406661 y_0!1_2!4 -19.808093515336722 y_0!2_2!4 -42.072973137271894 y_0!3_2!4 -74.91373520134512 y_0!4_2!4 +63.8418539489615 y_0!5_2!4 +20.511055043266197 y_0!6_2!4 -83.28832265351396 y_0!1_2!5 +40.2931946540935 y_0!2_2!5 -85.30218638088441 y_0!3_2!5 +68.80089794669394 y_0!4_2!5 +70.50297963409912 y_0!5_2!5 +89.17881175293013 y_0!6_2!5 -19.461428524470307 y_0!1_2!6 +96.97981419287439 y_0!2_2!6 +77.95312718208478 y_0!3_2!6 -80.47936918574617 y_0!4_2!6 -69.12325648585569 y_0!5_2!6 +96.25076478925871 y_0!6_2!6 + lambda_1!5 - mu_1 = 0
 epc_1!6: +94.08466305610594 y_0!1_2!1 -87.67522825173468 y_0!2_2!1 -94.4886057493839 y_0!3_2!1 -11.441125987536438 y_0!4_2!1 -31.77472736306848 y_0!5_2!1 +50.05772738773376 y_0!6_2!1 -20.112739552974475 y_0!1_2!2 +16.35569937879042 y_0!2_2!2 -32.1290497315067 y_0!3_2!2 +10.028364592699731 y_0!4_2!2 -9.09913400612055 y_0!5_2!2 +67.541532197789 y_0!6_2!2 +30.705360893160133 y_0!1_2!3 -20.20149315788815 y_0!2_2!3 +89.7011641838501 y_0!3_2!3 -30.93710391571527 y_0!4_2!3 -37.93739496505422 y_0!5_2!3 +41.63162783743206 y_0!6_2!3 -69.87229572945859 y_0!1_2!4 +53.112439519717014 y_0!2_2!4 +54.9303017135492 y_0!3_2!4 +64.72104671322865 y_0!4_2!4 -93.49782605177852 y_0!5_2!4 +52.697381692600516 y_0!6_2!4 -34.07615347935375 y_0!1_2!5 -35.39339191567264 y_0!2_2!5 -96.489986747431 y_0!3_2!5 +41.622321190594874 y_0!4_2!5 +54.29321487417229 y_0!5_2!5 +56.70663693803996 y_0!6_2!5 -45.46360767742681 y_0!1_2!6 +93.41571333122837 y_0!2_2!6 +84.63541537742515 y_0!3_2!6 +44.05474451862216 y_0!4_2!6 +50.5025375179612 y_0!5_2!6 -27.003417255373336 y_0!6_2!6 + lambda_1!6 - mu_1 = 0
 dc_1: x_1!1 + x_1!2 + x_1!3 + x_1!4 + x_1!5 + x_1!6 = 1
 bc_1!1: lambda_1!1 +299.3768691910641 x_1!1 <= 299.3768691910641
 bc_1!2: lambda_1!2 +299.3768691910641 x_1!2 <= 299.3768691910641
 bc_1!3: lambda_1!3 +299.3768691910641 x_1!3 <= 299.3768691910641
 bc_1!4: lambda_1!4 +299.3768691910641 x_1!4 <= 299.3768691910641
 bc_1!5: lambda_1!5 +299.3768691910641 x_1!5 <= 299.3768691910641
 bc_1!6: lambda_1!6 +299.3768691910641 x_1!6 <= 299.3768691910641
 sum_1!1: y_0!1_2!1 - x_0!1 - x_2!1 >= -1
 idk_1!1!0: y_0!1_2!1 - x_0!1 <= 0
 idk_1!1!2: y_0!1_2!1 - x_2!1 <= 0
 sum_1!2: y_0!2_2!1 - x_0!2 - x_2!1 >= -1
 idk_1!2!0: y_0!2_2!1 - x_0!2 <= 0
 idk_1!2!2: y_0!2_2!1 - x_2!1 <= 0
 sum_1!3: y_0!3_2!1 - x_0!3 - x_2!1 >= -1
 idk_1!3!0: y_0!3_2!1 - x_0!3 <= 0
 idk_1!3!2: y_0!3_2!1 - x_2!1 <= 0
 sum_1!4: y_0!4_2!1 - x_0!4 - x_2!1 >= -1
 idk_1!4!0: y_0!4_2!1 - x_0!4 <= 0
 idk_1!4!2: y_0!4_2!1 - x_2!1 <= 0
 sum_1!5: y_0!5_2!1 - x_0!5 - x_2!1 >= -1
 idk_1!5!0: y_0!5_2!1 - x_0!5 <= 0
 idk_1!5!2: y_0!5_2!1 - x_2!1 <= 0
 sum_1!6: y_0!6_2!1 - x_0!6 - x_2!1 >= -1
 idk_1!6!0: y_0!6_2!1 - x_0!6 <= 0
 idk_1!6!2: y_0!6_2!1 - x_2!1 <= 0
 sum_1!7: y_0!1_2!2 - x_0!1 - x_2!2 >= -1
 idk_1!7!0: y_0!1_2!2 - x_0!1 <= 0
 idk_1!7!2: y_0!1_2!2 - x_2!2 <= 0
 sum_1!8: y_0!2_2!2 - x_0!2 - x_2!2 >= -1
 idk_1!8!0: y_0!2_2!2 - x_0!2 <= 0
 idk_1!8!2: y_0!2_2!2 - x_2!2 <= 0
 sum_1!9: y_0!3_2!2 - x_0!3 - x_2!2 >= -1
 idk_1!9!0: y_0!3_2!2 - x_0!3 <= 0
 idk_1!9!2: y_0!3_2!2 - x_2!2 <= 0
 sum_1!10: y_0!4_2!2 - x_0!4 - x_2!2 >= -1
 idk_1!10!0: y_0!4_2!2 - x_0!4 <= 0
 idk_1!10!2: y_0!4_2!2 - x_2!2 <= 0
 sum_1!11: y_0!5_2!2 - x_0!5 - x_2!2 >= -1
 idk_1!11!0: y_0!5_2!2 - x_0!5 <= 0
 idk_1!11!2: y_0!5_2!2 - x_2!2 <= 0
 sum_1!12: y_0!6_2!2 - x_0!6 - x_2!2 >= -1
 idk_1!12!0: y_0!6_2!2 - x_0!6 <= 0
 idk_1!12!2: y_0!6_2!2 - x_2!2 <= 0
 sum_1!13: y_0!1_2!3 - x_0!1 - x_2!3 >= -1
 idk_1!13!0: y_0!1_2!3 - x_0!1 <= 0
 idk_1!13!2: y_0!1_2!3 - x_2!3 <= 0
 sum_1!14: y_0!2_2!3 - x_0!2 - x_2!3 >= -1
 idk_1!14!0: y_0!2_2!3 - x_0!2 <= 0
 idk_1!14!2: y_0!2_2!3 - x_2!3 <= 0
 sum_1!15: y_0!3_2!3 - x_0!3 - x_2!3 >= -1
 idk_1!15!0: y_0!3_2!3 - x_0!3 <= 0
 idk_1!15!2: y_0!3_2!3 - x_2!3 <= 0
 sum_1!16: y_0!4_2!3 - x_0!4 - x_2!3 >= -1
 idk_1!16!0: y_0!4_2!3 - x_0!4 <= 0
 idk_1!16!2: y_0!4_2!3 - x_2!3 <= 0
 sum_1!17: y_0!5_2!3 - x_0!5 - x_2!3 >= -1
 idk_1!17!0: y_0!5_2!3 - x_0!5 <= 0
 idk_1!17!2: y_0!5_2!3 - x_2!3 <= 0
 sum_1!18: y_0!6_2!3 - x_0!6 - x_2!3 >= -1
 idk_1!18!0: y_0!6_2!3 - x_0!6 <= 0
 idk_1!18!2: y_0!6_2!3 - x_2!3 <= 0
 sum_1!19: y_0!1_2!4 - x_0!1 - x_2!4 >= -1
 idk_1!19!0: y_0!1_2!4 - x_0!1 <= 0
 idk_1!19!2: y_0!1_2!4 - x_2!4 <= 0
 sum_1!20: y_0!2_2!4 - x_0!2 - x_2!4 >= -1
 idk_1!20!0: y_0!2_2!4 - x_0!2 <= 0
 idk_1!20!2: y_0!2_2!4 - x_2!4 <= 0
 sum_1!21: y_0!3_2!4 - x_0!3 - x_2!4 >= -1
 idk_1!21!0: y_0!3_2!4 - x_0!3 <= 0
 idk_1!21!2: y_0!3_2!4 - x_2!4 <= 0
 sum_1!22: y_0!4_2!4 - x_0!4 - x_2!4 >= -1
 idk_1!22!0: y_0!4_2!4 - x_0!4 <= 0
 idk_1!22!2: y_0!4_2!4 - x_2!4 <= 0
 sum_1!23: y_0!5_2!4 - x_0!5 - x_2!4 >= -1
 idk_1!23!0: y_0!5_2!4 - x_0!5 <= 0
 idk_1!23!2: y_0!5_2!4 - x_2!4 <= 0
 sum_1!24: y_0!6_2!4 - x_0!6 - x_2!4 >= -1
 idk_1!24!0: y_0!6_2!4 - x_0!6 <= 0
 idk_1!24!2: y_0!6_2!4 - x_2!4 <= 0
 sum_1!25: y_0!1_2!5 - x_0!1 - x_2!5 >= -1
 idk_1!25!0: y_0!1_2!5 - x_0!1 <= 0
 idk_1!25!2: y_0!1_2!5 - x_2!5 <= 0
 sum_1!26: y_0!2_2!5 - x_0!2 - x_2!5 >= -1
 idk_1!26!0: y_0!2_2!5 - x_0!2 <= 0
 idk_1!26!2: y_0!2_2!5 - x_2!5 <= 0
 sum_1!27: y_0!3_2!5 - x_0!3 - x_2!5 >= -1
 idk_1!27!0: y_0!3_2!5 - x_0!3 <= 0
 idk_1!27!2: y_0!3_2!5 - x_2!5 <= 0
 sum_1!28: y_0!4_2!5 - x_0!4 - x_2!5 >= -1
 idk_1!28!0: y_0!4_2!5 - x_0!4 <= 0
 idk_1!28!2: y_0!4_2!5 - x_2!5 <= 0
 sum_1!29: y_0!5_2!5 - x_0!5 - x_2!5 >= -1
 idk_1!29!0: y_0!5_2!5 - x_0!5 <= 0
 idk_1!29!2: y_0!5_2!5 - x_2!5 <= 0
 sum_1!30: y_0!6_2!5 - x_0!6 - x_2!5 >= -1
 idk_1!30!0: y_0!6_2!5 - x_0!6 <= 0
 idk_1!30!2: y_0!6_2!5 - x_2!5 <= 0
 sum_1!31: y_0!1_2!6 - x_0!1 - x_2!6 >= -1
 idk_1!31!0: y_0!1_2!6 - x_0!1 <= 0
 idk_1!31!2: y_0!1_2!6 - x_2!6 <= 0
 sum_1!32: y_0!2_2!6 - x_0!2 - x_2!6 >= -1
 idk_1!32!0: y_0!2_2!6 - x_0!2 <= 0
 idk_1!32!2: y_0!2_2!6 - x_2!6 <= 0
 sum_1!33: y_0!3_2!6 - x_0!3 - x_2!6 >= -1
 idk_1!33!0: y_0!3_2!6 - x_0!3 <= 0
 idk_1!33!2: y_0!3_2!6 - x_2!6 <= 0
 sum_1!34: y_0!4_2!6 - x_0!4 - x_2!6 >= -1
 idk_1!34!0: y_0!4_2!6 - x_0!4 <= 0
 idk_1!34!2: y_0!4_2!6 - x_2!6 <= 0
 sum_1!35: y_0!5_2!6 - x_0!5 - x_2!6 >= -1
 idk_1!35!0: y_0!5_2!6 - x_0!5 <= 0
 idk_1!35!2: y_0!5_2!6 - x_2!6 <= 0
 sum_1!36: y_0!6_2!6 - x_0!6 - x_2!6 >= -1
 idk_1!36!0: y_0!6_2!6 - x_0!6 <= 0
 idk_1!36!2: y_0!6_2!6 - x_2!6 <= 0
 epc_2!1: +68.70755381815951 y_0!1_1!1 +40.818465461825866 y_0!2_1!1 -56.829278487759005 y_0!3_1!1 -3.5156182449159274 y_0!4_1!1 -13.437460691444073 y_0!5_1!1 +99.5610376406517 y_0!6_1!1 -66.48445259438685 y_0!1_1!2 -57.098758812754525 y_0!2_1!2 +60.88417098820443 y_0!3_1!2 +77.98604947256266 y_0!4_1!2 +85.20099001392614 y_0!5_1!2 +22.598640477021576 y_0!6_1!2 +88.4788059183177 y_0!1_1!3 +63.41866200076808 y_0!2_1!3 -61.31786460466713 y_0!3_1!3 +94.64278101830544 y_0!4_1!3 -20.470103704830507 y_0!5_1!3 +33.18266651762315 y_0!6_1!3 +63.48617369366295 y_0!1_1!4 +89.4382625350313 y_0!2_1!4 +2.980767758722777 y_0!3_1!4 -27.837090441795297 y_0!4_1!4 +63.58367667941894 y_0!5_1!4 +47.972579443543964 y_0!6_1!4 +48.920414522853775 y_0!1_1!5 -48.57560970849557 y_0!2_1!5 +94.81599101969698 y_0!3_1!5 -99.50439426367859 y_0!4_1!5 +48.12742116516878 y_0!5_1!5 -25.69710320847733 y_0!6_1!5 -63.024734904748314 y_0!1_1!6 +73.95902238336083 y_0!2_1!6 +10.997278526735315 y_0!3_1!6 -58.11028049117872 y_0!4_1!6 +44.578794806966954 y_0!5_1!6 -52.57651261716403 y_0!6_1!6 + lambda_2!1 - mu_2 = 0
 epc_2!2: +38.89882565516223 y_0!1_1!1 +54.09093885559349 y_0!2_1!1 +50.574775293135644 y_0!3_1!1 +23.274089581612074 y_0!4_1!1 -79.42429880994106 y_0!5_1!1 -54.55056390218982 y_0!6_1!1 -83.83815297282047 y_0!1_1!2 +49.467495686977685 y_0!2_1!2 -45.47085407371196 y_0!3_1!2 +56.67573962458468 y_0!4_1!2 -92.39991103236574 y_0!5_1!2 +14.166971986105764 y_0!6_1!2 +35.38874791742106 y_0!1_1!3 -36.65848602749631 y_0!2_1!3 +37.33648133952968 y_0!3_1!3 -60.99570088817223 y_0!4_1!3 +8.09796505520464 y_0!5_1!3 +22.447424420085582 y_0!6_1!3 -68.03687237754303 y_0!1_1!4 -79.15953602049377 y_0!2_1!4 +28.311744939922335 y_0!3_1!4 -44.41523514426551 y_0!4_1!4 +83.47188014049365 y_0!5_1!4 -85.72036343100501 y_0!6_1!4 -29.27632290631483 y_0!1_1!5 +64.1682527707903 y_0!2_1!5 -97.03569569908721 y_0!3_1!5 -91.6759791075502 y_0!4_1!5 -0.8894116792011744 y_0!5_1!5 +67.72501267831424 y_0!6_1!5 -72.5788033435893 y_0!1_1!6 +30.439767519717265 y_0!2_1!6 +52.70267561558205 y_0!3_1!6 +70.48270922429583 y_0!4_1!6 -69.66874220148924 y_0!5_1!6 -90.06295186958152 y_0!6_1!6 + lambda_2!2 - mu_2 = 0
 epc_2!3: +13.057719761770258 y_0!1_1!1 +94.5075560422359 y_0!2_1!1 -44.0762108895846 y_0!3_1!1 -50.04984419056806 y_0!4_1!1 +93.93807339504485 y_0!5_1!1 -30.599263458258037 y_0!6_1!1 +34.44554884494667 y_0!1_1!2 -6.563632519528966 y_0!2_1!2 -56.24043414227422 y_0!3_1!2 -60.930386584302966 y_0!4_1!2 -57.63265035849863 y_0!5_1!2 +23.495063463425353 y_0!6_1!2 +66.00174278555912 y_0!1_1!3 -64.6521325896197 y_0!2_1!3 +46.60111769706333 y_0!3_1!3 +11.941434379958451 y_0!4_1!3 +47.539104081972596 y_0!5_1!3 +76.24657760301861 y_0!6_1!3 +15.753613050891332 y_0!1_1!4 +22.45190128946797 y_0!2_1!4 -61.82658652974806 y_0!3_1!4 -26.623982485317853 y_0!4_1!4 -5.861792038001795 y_0!5_1!4 -14.268791500044358 y_0!6_1!4 -53.2825956962675 y_0!1_1!5 +78.58577266714008 y_0!2_1!5 -84.28854959476382 y_0!3_1!5 -5.966009836696173 y_0!4_1!5 +9.800544137342342 y_0!5_1!5 -35.87136499368778 y_0!6_1!5 -14.703454338707772 y_0!1_1!6 -88.99369940063116 y_0!2_1!6 -50.86219833046839 y_0!3_1!6 -86.33854210862133 y_0!4_1!6 -26.598954017136904 y_0!5_1!6 -39.804418666983345 y_0!6_1!6 + lambda_2!3 - mu_2 = 0
 epc_2!4: +61.322753925013984 y_0!1_1!1 -96.84596373119665 y_0!2_1!1 +58.631494746451295 y_0!3_1!1 -58.289772033007516 y_0!4_1!1 +81.276524318193 y_0!5_1!1 -28.715107342459973 y_0!6_1!1 -91.84701207543036 y_0!1_1!2 +31.39277322686391 y_0!2_1!2 -73.69542063658 y_0!3_1!2 -81.8394023147154 y_0!4_1!2 -88.16303235407847 y_0!5_1!2 -59.49649279428058 y_0!6_1!2 +62.28348689537532 y_0!1_1!3 +29.203145732306496 y_0!2_1!3 -20.314087039345168 y_0!3_1!3 -43.705813488353314 y_0!4_1!3 -63.179745258752874 y_0!5_1!3 +97.8076347952146 y_0!6_1!3 +74.8187897022278 y_0!1_1!4 +44.984295976772955 y_0!2_1!4 +96.29701522283779 y_0!3_1!4 +15.88042558608744 y_0!4_1!4 +85.74656686812256 y_0!5_1!4 -21.464927860890867 y_0!6_1!4 -55.46570496440681 y_0!1_1!5 +15.625628117659403 y_0!2_1!5 -58.137657727163884 y_0!3_1!5 -54.750575783126656 y_0!4_1!5 +10.376232459883951 y_0!5_1!5 +78.95568825194815 y_0!6_1!5 +45.015943381490814 y_0!1_1!6 -78.3913737894153 y_0!2_1!6 +69.82163744711417 y_0!3_1!6 +82.6596314974152 y_0!4_1!6 -72.26181515639409 y_0!5_1!6 +18.889447470052787 y_0!6_1!6 + lambda_2!4 - mu_2 = 0
 epc_2!5: -84.60512043725417 y_0!1_1!1 -82.02974088433422 y_0!2_1!1 -44.87469788361944 y_0!3_1!1 +72.98827431423382 y_0!4_1!1 -18.728910613243272 y_0!5_1!1 -87.570440495582 y_0!6_1!1 +62.58937513014831 y_0!1_1!2 -80.48844460354886 y_0!2_1!2 +17.240331671798813 y_0!3_1!2 -10.040776345586693 y_0!4_1!2 -34.37419875499236 y_0!5_1!2 +88.57464403079359 y_0!6_1!2 -42.08417743524559 y_0!1_1!3 -68.19887731248475 y_0!2_1!3 -9.555653041619266 y_0!3_1!3 +64.88408581897986 y_0!4_1!3 +55.661504256214926 y_0!5_1!3 +46.50034288662937 y_0!6_1!3 +55.75546352636525 y_0!1_1!4 -11.43898342560918 y_0!2_1!4 +36.53464761715861 y_0!3_1!4 -78.63884957359073 y_0!4_1!4 -13.801046859114521 y_0!5_1!4 -79.20366419084539 y_0!6_1!4 +98.10945087907999 y_0!1_1!5 -89.18577976163161 y_0!2_1!5 +56.847320208696914 y_0!3_1!5 -34.18903118624176 y_0!4_1!5 -3.6321240241917536 y_0!5_1!5 +18.89105677180207 y_0!6_1!5 +55.91156741303317 y_0!1_1!6 +26.727472327048858 y_0!2_1!6 +65.91439558641403 y_0!3_1!6 +53.50953370321815 y_0!4_1!6 +9.222345608803153 y_0!5_1!6 -22.158025711336776 y_0!6_1!6 + lambda_2!5 - mu_2 = 0
 epc_2!6: -16.40854277659092 y_0!1_1!1 -30.467770749313374 y_0!2_1!1 +35.25485711582695 y_0!3_1!1 -40.581731810660585 y_0!4_1!1 +20.142940688359758 y_0!5_1!1 -24.433021955308035 y_0!6_1!1 -6.5889507624768555 y_0!1_1!2 -56.49128231974343 y_0!2_1!2 +27.8931643669559 y_0!3_1!2 +56.237023011124535 y_0!4_1!2 +50.96810131791909 y_0!5_1!2 +80.43942266702828 y_0!6_1!2 +84.4791765447012 y_0!1_1!3 +57.1557651908538 y_0!2_1!3 +25.54742023232177 y_0!3_1!3 +15.479868998408804 y_0!4_1!3 -46.50539085151557 y_0!5_1!3 -5.900834384570658 y_0!6_1!3 -39.84629072287704 y_0!1_1!4 -36.149773240516645 y_0!2_1!4 -67.52651074272637 y_0!3_1!4 -19.123614315387982 y_0!4_1!4 +56.7789881483107 y_0!5_1!4 +49.602052573231816 y_0!6_1!4 +36.962774889766905 y_0!1_1!5 -77.84267510844766 y_0!2_1!5 +32.261740918182426 y_0!3_1!5 +50.04127731208533 y_0!4_1!5 +16.50279437154292 y_0!5_1!5 +88.02337652142788 y_0!6_1!5 -33.463273838927535 y_0!1_1!6 +42.244782445827695 y_0!2_1!6 +14.15486240098349 y_0!3_1!6 +76.26553935334638 y_0!4_1!6 -11.393824875795005 y_0!5_1!6 -78.14492994041898 y_0!6_1!6 + lambda_2!6 - mu_2 = 0
 dc_2: x_2!1 + x_2!2 + x_2!3 + x_2!4 + x_2!5 + x_2!6 = 1
 bc_2!1: lambda_2!1 +299.3768691910641 x_2!1 <= 299.3768691910641
 bc_2!2: lambda_2!2 +299.3768691910641 x_2!2 <= 299.3768691910641
 bc_2!3: lambda_2!3 +299.3768691910641 x_2!3 <= 299.3768691910641
 bc_2!4: lambda_2!4 +299.3768691910641 x_2!4 <= 299.3768691910641
 bc_2!5: lambda_2!5 +299.3768691910641 x_2!5 <= 299.3768691910641
 bc_2!6: lambda_2!6 +299.3768691910641 x_2!6 <= 299.3768691910641
 sum_2!1: y_0!1_1!1 - x_0!1 - x_1!1 >= -1
 idk_2!1!0: y_0!1_1!1 - x_0!1 <= 0
 idk_2!1!1: y_0!1_1!1 - x_1!1 <= 0
 sum_2!2: y_0!2_1!1 - x_0!2 - x_1!1 >= -1
 idk_2!2!0: y_0!2_1!1 - x_0!2 <= 0
 idk_2!2!1: y_0!2_1!1 - x_1!1 <= 0
 sum_2!3: y_0!3_1!1 - x_0!3 - x_1!1 >= -1
 idk_2!3!0: y_0!3_1!1 - x_0!3 <= 0
 idk_2!3!1: y_0!3_1!1 - x_1!1 <= 0
 sum_2!4: y_0!4_1!1 - x_0!4 - x_1!1 >= -1
 idk_2!4!0: y_0!4_1!1 - x_0!4 <= 0
 idk_2!4!1: y_0!4_1!1 - x_1!1 <= 0
 sum_2!5: y_0!5_1!1 - x_0!5 - x_1!1 >= -1
 idk_2!5!0: y_0!5_1!1 - x_0!5 <= 0
 idk_2!5!1: y_0!5_1!1 - x_1!1 <= 0
 sum_2!6: y_0!6_1!1 - x_0!6 - x_1!1 >= -1
 idk_2!6!0: y_0!6_1!1 - x_0!6 <= 0
 idk_2!6!1: y_0!6_1!1 - x_1!1 <= 0
 sum_2!7: y_0!1_1!2 - x_0!1 - x_1!2 >= -1
 idk_2!7!0: y_0!1_1!2 - x_0!1 <= 0
 idk_2!7!1: y_0!1_1!2 - x_1!2 <= 0
 sum_2!8: y_0!2_1!2 - x_0!2 - x_1!2 >= -1
 idk_2!8!0: y_0!2_1!2 - x_0!2 <= 0
 idk_2!8!1: y_0!2_1!2 - x_1!2 <= 0
 sum_2!9: y_0!3_1!2 - x_0!3 - x_1!2 >= -1
 idk_2!9!0: y_0!3_1!2 - x_0!3 <= 0
 idk_2!9!1: y_0!3_1!2 - x_1!2 <= 0
 sum_2!10: y_0!4_1!2 - x_0!4 - x_1!2 >= -1
 idk_2!10!0: y_0!4_1!2 - x_0!4 <= 0
 idk_2!10!1: y_0!4_1!2 - x_1!2 <= 0
 sum_2!11: y_0!5_1!2 - x_0!5 - x_1!2 >= -1
 idk_2!11!0: y_0!5_1!2 - x_0!5 <= 0
 idk_2!11!1: y_0!5_1!2 - x_1!2 <= 0
 sum_2!12: y_0!6_1!2 - x_0!6 - x_1!2 >= -1
 idk_2!12!0: y_0!6_1!2 - x_0!6 <= 0
 idk_2!12!1: y_0!6_1!2 - x_1!2 <= 0
 sum_2!13: y_0!1_1!3 - x_0!1 - x_1!3 >= -1
 idk_2!13!0: y_0!1_1!3 - x_0!1 <= 0
 idk_2!13!1: y_0!1_1!3 - x_1!3 <= 0
 sum_2!14: y_0!2_1!3 - x_0!2 - x_1!3 >= -1
 idk_2!14!0: y_0!2_1!3 - x_0!2 <= 0
 idk_2!14!1: y_0!2_1!3 - x_1!3 <= 0
 sum_2!15: y_0!3_1!3 - x_0!3 - x_1!3 >= -1
 idk_2!15!0: y_0!3_1!3 - x_0!3 <= 0
 idk_2!15!1: y_0!3_1!3 - x_1!3 <= 0
 sum_2!16: y_0!4_1!3 - x_0!4 - x_1!3 >= -1
 idk_2!16!0: y_0!4_1!3 - x_0!4 <= 0
 idk_2!16!1: y_0!4_1!3 - x_1!3 <= 0
 sum_2!17: y_0!5_1!3 - x_0!5 - x_1!3 >= -1
 idk_2!17!0: y_0!5_1!3 - x_0!5 <= 0
 idk_2!17!1: y_0!5_1!3 - x_1!3 <= 0
 sum_2!18: y_0!6_1!3 - x_0!6 - x_1!3 >= -1
 idk_2!18!0: y_0!6_1!3 - x_0!6 <= 0
 idk_2!18!1: y_0!6_1!3 - x_1!3 <= 0
 sum_2!19: y_0!1_1!4 - x_0!1 - x_1!4 >= -1
 idk_2!19!0: y_0!1_1!4 - x_0!1 <= 0
 idk_2!19!1: y_0!1_1!4 - x_1!4 <= 0
 sum_2!20: y_0!2_1!4 - x_0!2 - x_1!4 >= -1
 idk_2!20!0: y_0!2_1!4 - x_0!2 <= 0
 idk_2!20!1: y_0!2_1!4 - x_1!4 <= 0
 sum_2!21: y_0!3_1!4 - x_0!3 - x_1!4 >= -1
 idk_2!21!0: y_0!3_1!4 - x_0!3 <= 0
 idk_2!21!1: y_0!3_1!4 - x_1!4 <= 0
 sum_2!22: y_0!4_1!4 - x_0!4 - x_1!4 >= -1
 idk_2!22!0: y_0!4_1!4 - x_0!4 <= 0
 idk_2!22!1: y_0!4_1!4 - x_1!4 <= 0
 sum_2!23: y_0!5_1!4 - x_0!5 - x_1!4 >= -1
 idk_2!23!0: y_0!5_1!4 - x_0!5 <= 0
 idk_2!23!1: y_0!5_1!4 - x_1!4 <= 0
 sum_2!24: y_0!6_1!4 - x_0!6 - x_1!4 >= -1
 idk_2!24!0: y_0!6_1!4 - x_0!6 <= 0
 idk_2!24!1: y_0!6_1!4 - x_1!4 <= 0
 sum_2!25: y_0!1_1!5 - x_0!1 - x_1!5 >= -1
 idk_2!25!0: y_0!1_1!5 - x_0!1 <= 0
 idk_2!25!1: y_0!1_1!5 - x_1!5 <= 0
 sum_2!26: y_0!2_1!5 - x_0!2 - x_1!5 >= -1
 idk_2!26!0: y_0!2_1!5 - x_0!2 <= 0
 idk_2!26!1: y_0!2_1!5 - x_1!5 <= 0
 sum_2!27: y_0!3_1!5 - x_0!3 - x_1!5 >= -1
 idk_2!27!0: y_0!3_1!5 - x_0!3 <= 0
 idk_2!27!1: y_0!3_1!5 - x_1!5 <= 0
 sum_2!28: y_0!4_1!5 - x_0!4 - x_1!5 >= -1
 idk_2!28!0: y_0!4_1!5 - x_0!4 <= 0
 idk_2!28!1: y_0!4_1!5 - x_1!5 <= 0
 sum_2!29: y_0!5_1!5 - x_0!5 - x_1!5 >= -1
 idk_2!29!0: y_0!5_1!5 - x_0!5 <= 0
 idk_2!29!1: y_0!5_1!5 - x_1!5 <= 0
 sum_2!30: y_0!6_1!5 - x_0!6 - x_1!5 >= -1
 idk_2!30!0: y_0!6_1!5 - x_0!6 <= 0
 idk_2!30!1: y_0!6_1!5 - x_1!5 <= 0
 sum_2!31: y_0!1_1!6 - x_0!1 - x_1!6 >= -1
 idk_2!31!0: y_0!1_1!6 - x_0!1 <= 0
 idk_2!31!1: y_0!1_1!6 - x_1!6 <= 0
 sum_2!32: y_0!2_1!6 - x_0!2 - x_1!6 >= -1
 idk_2!32!0: y_0!2_1!6 - x_0!2 <= 0
 idk_2!32!1: y_0!2_1!6 - x_1!6 <= 0
 sum_2!33: y_0!3_1!6 - x_0!3 - x_1!6 >= -1
 idk_2!33!0: y_0!3_1!6 - x_0!3 <= 0
 idk_2!33!1: y_0!3_1!6 - x_1!6 <= 0
 sum_2!34: y_0!4_1!6 - x_0!4 - x_1!6 >= -1
 idk_2!34!0: y_0!4_1!6 - x_0!4 <= 0
 idk_2!34!1: y_0!4_1!6 - x_1!6 <= 0
 sum_2!35: y_0!5_1!6 - x_0!5 - x_1!6 >= -1
 idk_2!35!0: y_0!5_1!6 - x_0!5 <= 0
 idk_2!35!1: y_0!5_1!6 - x_1!6 <= 0
 sum_2!36: y_0!6_1!6 - x_0!6 - x_1!6 >= -1
 idk_2!36!0: y_0!6_1!6 - x_0!6 <= 0
 idk_2!36!1: y_0!6_1!6 - x_1!6 <= 0
Bounds
 mu_0 free
 mu_1 free
 mu_2 free
Binary
 x_0!1 x_0!2 x_0!3 x_0!4 x_0!5 x_0!6 x_1!1 x_1!2 x_1!3 x_1!4 x_1!5 x_1!6 x_2!1 x_2!2 x_2!3 x_2!4 x_2!5 x_2!6
End
